p wcnf 152 228 229 
1 149 -33 0 
1 -1 130 0 
1 17 81 0 
1 -28 61 0 
1 -103 66 0 
1 6 -24 0 
1 -11 -151 0 
1 -70 -106 0 
1 -124 -149 0 
1 -104 139 0 
1 98 130 0 
1 68 -152 0 
1 38 118 0 
1 -115 45 0 
1 101 118 0 
1 -100 61 0 
1 52 64 0 
1 30 -84 0 
1 108 93 0 
1 133 -40 0 
1 97 116 0 
1 -117 -143 0 
1 -13 -26 0 
1 -11 -48 0 
1 -115 -145 0 
1 -15 -128 0 
1 -148 72 0 
1 -54 121 0 
1 28 -105 0 
1 -106 -43 0 
1 -29 92 0 
1 58 -16 0 
1 -97 104 0 
1 124 -48 0 
1 -142 -138 0 
1 -74 -76 0 
1 -37 68 0 
1 126 103 0 
1 98 5 0 
1 28 -89 0 
1 41 -107 0 
1 146 75 0 
1 -95 114 0 
1 -81 -13 0 
1 -138 45 0 
1 65 115 0 
1 74 -32 0 
1 -62 -6 0 
1 8 -1 0 
1 63 71 0 
1 -132 63 0 
1 -37 73 0 
1 73 121 0 
1 52 151 0 
1 145 -44 0 
1 -21 26 0 
1 104 16 0 
1 63 149 0 
1 151 -75 0 
1 126 54 0 
1 58 -87 0 
1 129 -57 0 
1 -125 10 0 
1 147 -92 0 
1 -83 -63 0 
1 146 -108 0 
1 146 -38 0 
1 -122 -65 0 
1 99 13 0 
1 70 -58 0 
1 144 63 0 
1 -93 -105 0 
1 -87 138 0 
1 95 86 0 
1 -79 59 0 
1 -9 -116 0 
1 137 -88 0 
1 104 -107 0 
1 -102 -13 0 
1 -146 17 0 
1 -90 -144 0 
1 30 59 0 
1 63 131 0 
1 65 -16 0 
1 -106 -67 0 
1 42 -116 0 
1 -99 -6 0 
1 -23 99 0 
1 120 48 0 
1 -112 -144 0 
1 25 30 0 
1 137 106 0 
1 -30 92 0 
1 114 -60 0 
1 87 52 0 
1 -71 -148 0 
1 -31 -17 0 
1 134 94 0 
1 -3 116 0 
1 -60 -50 0 
1 31 -39 0 
1 53 -118 0 
1 60 -117 0 
1 -99 70 0 
1 -123 59 0 
1 141 99 0 
1 57 -122 0 
1 -148 -32 0 
1 60 -103 0 
1 20 -152 0 
1 61 -76 0 
1 -120 -4 0 
1 -132 36 0 
1 71 112 0 
1 -19 91 0 
1 93 44 0 
1 -97 137 0 
1 -113 -38 0 
1 -44 126 0 
1 -79 -86 0 
1 103 68 0 
1 89 85 0 
1 -145 29 0 
1 67 -98 0 
1 -93 -60 0 
1 -72 -56 0 
1 -12 -37 0 
1 101 151 0 
1 -5 -103 0 
1 -143 98 0 
1 -73 127 0 
1 122 -92 0 
1 -55 -100 0 
1 -117 126 0 
1 17 -28 0 
1 -115 -21 0 
1 -95 43 0 
1 114 -3 0 
1 62 -97 0 
1 127 -99 0 
1 7 80 0 
1 18 -27 0 
1 -13 31 0 
1 104 122 0 
1 -51 -124 0 
1 63 -83 0 
1 -21 -54 0 
1 107 -43 0 
1 -28 -17 0 
1 -10 102 0 
1 -104 -79 0 
1 -140 111 0 
1 -103 143 0 
1 -38 -78 0 
1 -6 -108 0 
1 -69 -58 0 
1 -145 63 0 
1 -126 -135 0 
1 -41 67 0 
1 76 96 0 
1 13 134 0 
1 -78 2 0 
1 48 -73 0 
1 -67 -21 0 
1 151 -16 0 
1 77 128 0 
1 -8 21 0 
1 51 60 0 
1 105 85 0 
1 -138 -22 0 
1 19 -66 0 
1 -133 81 0 
1 -91 97 0 
1 -49 -99 0 
1 121 98 0 
1 126 -119 0 
1 -86 71 0 
1 89 38 0 
1 -43 113 0 
1 131 83 0 
1 -60 -145 0 
1 23 124 0 
1 33 -20 0 
1 -119 -8 0 
1 119 -106 0 
1 -61 77 0 
1 -52 40 0 
1 -62 -119 0 
1 89 102 0 
1 99 32 0 
1 69 -68 0 
1 -33 -52 0 
1 -14 53 0 
1 73 -40 0 
1 136 29 0 
1 -25 -86 0 
1 142 106 0 
1 -72 -56 0 
1 9 110 0 
1 2 -65 0 
1 -37 84 0 
1 -39 4 0 
1 101 -130 0 
1 -92 -12 0 
1 -54 -100 0 
1 -130 131 0 
1 6 123 0 
1 -148 -13 0 
1 -123 30 0 
1 100 8 0 
1 -108 67 0 
1 91 87 0 
1 99 43 0 
1 100 -146 0 
1 94 36 0 
1 68 -38 0 
1 22 -12 0 
1 -152 90 0 
1 101 -80 0 
1 129 -36 0 
1 132 99 0 
1 59 -14 0 
1 109 -2 0 
1 7 -26 0 
1 149 43 0 
1 -134 34 0 
1 -112 95 0 
1 38 6 0 
